 vasp.5.3.5 31Mar14 (build Jun 24 2017 20:18:17) complex

 INCAR:
 POTCAR:    PAW_PBE Cd 06Sep2000
 POTCAR:    PAW_PBE Te 08Apr2002
 POTCAR:    PAW_PBE Cd 06Sep2000
   VRHFIN =Cd : s2 d10

   TITEL  = PAW_PBE Cd 06Sep2000
   POMASS =  112.411; ZVAL   =   12.000    mass and valenz
   ENMAX  =  274.336; ENMIN  =  205.752 eV

 POTCAR:    PAW_PBE Te 08Apr2002
   VRHFIN =Te: s2p4

   TITEL  = PAW_PBE Te 08Apr2002
   POMASS =  127.600; ZVAL   =    6.000    mass and valenz
   ENMAX  =  174.982; ENMIN  =  131.236 eV

  PAW_PBE Cd 06Sep2000                  :
  PAW_PBE Te 08Apr2002                  :

 POSCAR: CdTe bulk
  positions in direct lattice
  velocities in cartesian coordinates
 exchange correlation table for  LEXCH =        8
   RHO(1)=    0.500       N(1)  =     2000
   RHO(2)=  100.500       N(2)  =     4000

 ion  position               nearest neighbor table
   1  0.000  0.000  0.000-   2 2.81   2 2.81   2 2.81   2 2.81
   2  0.250  0.250  0.250-   1 2.81   1 2.81   1 2.81   1 2.81

  LATTYP: Found a face centered cubic cell.
 ALAT       =     6.4800000000

  Lattice vectors:

 A1 = (   3.2400000000,   3.2400000000,   0.0000000000)
 A2 = (   0.0000000000,   3.2400000000,   3.2400000000)
 A3 = (   3.2400000000,   0.0000000000,   3.2400000000)

Analysis of symmetry for initial positions (statically):
 Subroutine PRICEL returns:
 Original cell was already a primitive cell.

 Routine SETGRP: Setting up the symmetry group for a
 face centered cubic supercell.

 Subroutine GETGRP returns: Found 24 space group operations
 (whereof 24 operations were pure point group operations)
 out of a pool of 48 trial point group operations.

The static configuration has the point symmetry T_d .

Analysis of symmetry for dynamics (positions and initial velocities):
 Subroutine PRICEL returns:
 Original cell was already a primitive cell.

 Routine SETGRP: Setting up the symmetry group for a
 face centered cubic supercell.

 Subroutine GETGRP returns: Found 24 space group operations
 (whereof 24 operations were pure point group operations)
 out of a pool of 48 trial point group operations.

The dynamic configuration has the point symmetry T_d .

 KPOINTS: K-points band

Automatic generation of k-mesh.
Space group operators:
 irot       det(A)        alpha          n_x          n_y          n_z        tau_x        tau_y        tau_z
    1     1.000000     0.000000     1.000000     0.000000     0.000000     0.000000     0.000000     0.000000
    2     1.000000   120.000000    -0.577350    -0.577350    -0.577350     0.000000     0.000000     0.000000
    3     1.000000   120.000000     0.577350     0.577350     0.577350     0.000000     0.000000     0.000000
    4    -1.000000    90.000000     0.000000    -1.000000     0.000000     0.000000     0.000000     0.000000
    5    -1.000000   180.000000     0.707107     0.707107     0.000000     0.000000     0.000000     0.000000
    6    -1.000000    90.000000     1.000000     0.000000     0.000000     0.000000     0.000000     0.000000
    7     1.000000   180.000000     0.000000     1.000000     0.000000     0.000000     0.000000     0.000000
    8     1.000000   120.000000     0.577350     0.577350    -0.577350     0.000000     0.000000     0.000000
    9     1.000000   120.000000     0.577350    -0.577350    -0.577350     0.000000     0.000000     0.000000
   10    -1.000000    90.000000     0.000000     1.000000     0.000000     0.000000     0.000000     0.000000
   11    -1.000000    90.000000     0.000000     0.000000    -1.000000     0.000000     0.000000     0.000000
   12    -1.000000   180.000000     0.000000     0.707107     0.707107     0.000000     0.000000     0.000000
   13     1.000000   120.000000    -0.577350     0.577350     0.577350     0.000000     0.000000     0.000000
   14     1.000000   120.000000    -0.577350     0.577350    -0.577350     0.000000     0.000000     0.000000
   15     1.000000   180.000000     0.000000     0.000000     1.000000     0.000000     0.000000     0.000000
   16    -1.000000    90.000000    -1.000000     0.000000     0.000000     0.000000     0.000000     0.000000
   17    -1.000000   180.000000     0.707107     0.000000     0.707107     0.000000     0.000000     0.000000
   18    -1.000000    90.000000     0.000000     0.000000     1.000000     0.000000     0.000000     0.000000
   19     1.000000   120.000000    -0.577350    -0.577350     0.577350     0.000000     0.000000     0.000000
   20     1.000000   180.000000     1.000000     0.000000     0.000000     0.000000     0.000000     0.000000
   21     1.000000   120.000000     0.577350    -0.577350     0.577350     0.000000     0.000000     0.000000
   22    -1.000000   180.000000     0.707107    -0.707107     0.000000     0.000000     0.000000     0.000000
   23    -1.000000   180.000000     0.707107     0.000000    -0.707107     0.000000     0.000000     0.000000
   24    -1.000000   180.000000     0.000000    -0.707107     0.707107     0.000000     0.000000     0.000000

 Subroutine IBZKPT returns following result:

 Found     10 irreducible k-points:

 Following reciprocal coordinates:
            Coordinates               Weight
  0.125000  0.125000  0.125000     96.000000
  0.375000  0.125000  0.125000    288.000000
 -0.375000  0.125000  0.125000    288.000000
 -0.125000  0.125000  0.125000    288.000000
  0.375000  0.375000  0.125000    288.000000
 -0.375000  0.375000  0.125000    576.000000
 -0.125000  0.375000  0.125000    576.000000
 -0.375000 -0.375000  0.125000    288.000000
  0.375000  0.375000  0.375000     96.000000
 -0.375000  0.375000  0.375000    288.000000

 Following cartesian coordinates:
            Coordinates               Weight
  0.125000  0.125000  0.125000     96.000000
  0.375000  0.375000 -0.125000    288.000000
 -0.375000 -0.375000  0.625000    288.000000
 -0.125000 -0.125000  0.375000    288.000000
  0.125000  0.625000  0.125000    288.000000
 -0.625000 -0.125000  0.875000    576.000000
 -0.375000  0.125000  0.625000    576.000000
  0.125000 -0.875000  0.125000    288.000000
  0.375000  0.375000  0.375000     96.000000
 -0.375000 -0.375000  1.125000    288.000000

 TETIRR: Found    102 inequivalent tetrahedra from     3072

 I would recommend the setting:
   dimension x,y,z NGX =    19 NGY =   19 NGZ =   19
 SYSTEM =  CdTe bulk relax
 POSCAR =  CdTe bulk

 Startparameter for this run:
   NWRITE =      2    write-flag & timer
   PREC   = normal    normal or accurate (medium, high low for compatibility)
   ISTART =      0    job   : 0-new  1-cont  2-samecut
   ICHARG =      2    charge: 1-file 2-atom 10-const
   ISPIN  =      1    spin polarized calculation?
   LNONCOLLINEAR =      F non collinear calculations
   LSORBIT =      F    spin-orbit coupling
   INIWAV =      1    electr: 0-lowe 1-rand  2-diag
   LASPH  =      F    aspherical Exc in radial PAW
   METAGGA=      F    non-selfconsistent MetaGGA calc.

 Electronic Relaxation 1
   ENCUT  =  275.0 eV  20.21 Ry    4.50 a.u.   6.20  6.20  6.20*2*pi/ulx,y,z
   ENINI  =  275.0     initial cutoff
   ENAUG  =  456.1 eV  augmentation charge cutoff
   NELM   =     60;   NELMIN=  2; NELMDL=  0     # of ELM steps
   EDIFF  = 0.1E-03   stopping-criterion for ELM
   LREAL  =      F    real-space projection
   NLSPLINE    = F    spline interpolate recip. space projectors
   LCOMPAT=      F    compatible to vasp.4.4
   GGA_COMPAT  = T    GGA compatible to vasp.4.4-vasp.4.6
   LMAXPAW     = -100 max onsite density
   LMAXMIX     =    2 max onsite mixed and CHGCAR
   VOSKOWN=      0    Vosko Wilk Nusair interpolation
   ROPT   =    0.00000   0.00000
 Ionic relaxation
   EDIFFG = -.1E-01   stopping-criterion for IOM
   NSW    =    100    number of steps for IOM
   NBLOCK =      1;   KBLOCK =    100    inner block; outer block
   IBRION =      1    ionic relax: 0-MD 1-quasi-New 2-CG
   NFREE  =      0    steps in history (QN), initial steepest desc. (CG)
   ISIF   =      3    stress and relaxation
   IWAVPR =     11    prediction:  0-non 1-charg 2-wave 3-comb
   ISYM   =      2    0-nonsym 1-usesym 2-fastsym
   LCORR  =      T    Harris-Foulkes like correction to forces

   POTIM  = 0.5000    time-step for ionic-motion
   TEIN   =    0.0    initial temperature
   TEBEG  =    0.0;   TEEND  =   0.0 temperature during run
   SMASS  =  -3.00    Nose mass-parameter (am)
   estimated Nose-frequenzy (Omega)   =  0.10E-29 period in steps =****** mass=  -0.480E-27a.u.
   SCALEE = 1.0000    scale energy and forces
   NPACO  =    256;   APACO  = 16.0  distance and # of slots for P.C.
   PSTRESS=    0.0 pullay stress

  Mass of Ions in am
   POMASS = 112.41127.60
  Ionic Valenz
   ZVAL   =  12.00  6.00
  Atomic Wigner-Seitz radii
  virtual crystal weights
   VCA    =   1.00  1.00
   NELECT =      18.0000    total number of electrons
   NUPDOWN=      -1.0000    fix difference up-down

 DOS related values:
   EMIN   =  10.00;   EMAX   =-10.00  energy-range for DOS
   EFERMI =   0.00
   ISMEAR =    -5;   SIGMA  =   0.20  broadening in eV -4-tet -1-fermi 0-gaus

 Electronic relaxation 2 (details)
   IALGO  =     38    algorithm
   LDIAG  =      T    sub-space diagonalisation (order eigenvalues)
   LSUBROT=      F    optimize rotation matrix (better conditioning)
   TURBO    =      0    0=normal 1=particle mesh
   IRESTART =      0    0=no restart 2=restart with 2 vectors
   NREBOOT  =      0    no. of reboots
   NMIN     =      0    reboot dimension
   EREF     =   0.00    reference energy to select bands
   IMIX   =      4    mixing-type and parameters
     AMIX     =   0.40;   BMIX     =  1.00
     AMIX_MAG =   1.60;   BMIX_MAG =  1.00
     AMIN     =   0.10
     WC   =   100.;   INIMIX=   1;  MIXPRE=   1;  MAXMIX= -45

 Intra band minimization:
   WEIMIN = 0.0010     energy-eigenvalue tresh-hold
   EBREAK =  0.19E-05  absolut break condition
   DEPER  =   0.30     relativ break condition

   TIME   =   0.40     timestep for ELM

  volume/ion in A,a.u.               =      34.01       229.53
  Fermi-wavevector in a.u.,A,eV,Ry     =   1.051019  1.986138 15.029559  1.104641
  Thomas-Fermi vector in A             =   2.186046

 Write flags
   LWAVE  =      T    write WAVECAR
   LCHARG =      T    write CHGCAR
   LVTOT  =      F    write LOCPOT, total local potential
   LVHAR  =      F    write LOCPOT, Hartree potential only
   LELF   =      F    write electronic localiz. function (ELF)
   LORBIT =      0    0 simple, 1 ext, 2 COOP (PROOUT)

 Dipole corrections
   LMONO  =      F    monopole corrections only (constant potential shift)
   LDIPOL =      F    correct potential (dipole corrections)
   IDIPOL =      0    1-x, 2-y, 3-z, 4-all directions
   EPSILON=  1.0000000 bulk dielectric constant

 Exchange correlation treatment:
   GGA     =    --    GGA type
   VOSKOWN=      0    Vosko Wilk Nusair interpolation
   LHFCALC =     F    Hartree Fock is set to
   LHFONE  =     F    Hartree Fock one center treatment
   AEXX    =    0.0000 exact exchange contribution

 Linear response parameters
   LEPSILON=     F    determine dielectric tensor
   LRPA    =     F    only Hartree local field effects (RPA)
   LNABLA  =     F    use nabla operator in PAW spheres
[...]
 k-point  5 :   0.3750 0.3750 0.1250  plane waves:     703
 k-point  6 :  -0.3750 0.3750 0.1250  plane waves:     709
 k-point  7 :  -0.1250 0.3750 0.1250  plane waves:     700
 k-point  8 :  -0.3750-0.3750 0.1250  plane waves:     706
 k-point  9 :   0.3750 0.3750 0.3750  plane waves:     709
 k-point 10 :  -0.3750 0.3750 0.3750  plane waves:     702

 maximum number of plane-waves:       709
 maximum index in each direction:
   IXMAX=    6   IYMAX=    6   IZMAX=    6
   IXMIN=   -6   IYMIN=   -6   IZMIN=   -6

 WARNING: aliasing errors must be expected set NGX to  26 to avoid them
 WARNING: aliasing errors must be expected set NGY to  26 to avoid them
 WARNING: aliasing errors must be expected set NGZ to  26 to avoid them
 aliasing errors are usually negligible using standard VASP settings
 and one can safely disregard these warnings

 Broyden mixing: mesh for mixing (old mesh)
   NGX = 13   NGY = 13   NGZ = 13
  (NGX  = 40   NGY  = 40   NGZ  = 40)
  gives a total of   2197 points

 initial charge density was supplied:
 charge density of overlapping atoms calculated
 number of electron      18.0000000 magnetization
 keeping initial charge density in first step

 Maximum index for augmentation-charges         6603 (set IRDMAX)

 First call to EWALD:  gamma=   0.434
 Maximum number of real-space cells 3x 3x 3
 Maximum number of reciprocal cells 3x 3x 3

----------------------------------------- Iteration    1(   1)  ---------------------------------------

 BZINTS: Fermi energy:  8.286337; 18.000000 electrons
         Band energy:   9.201407;  BLOECHL correction: -0.046314

 eigenvalue-minimisations  :   268
 total energy-change (2. order) : 0.7030824E+02  (-0.6110523E+03)
 number of electron      18.0000000 magnetization
 augmentation part       18.0000000 magnetization

 Free energy of the ion-electron system (eV)
  alpha Z        PSCENC =        50.23496175
  Ewald energy   TEWEN  =     -1045.26673093
  -Hartree energ DENC   =      -509.88395656
  -exchange      EXHF   =         0.00000000
  -V(xc)+E(xc)   XCENC  =       -22.61950811
  PAW double counting   =      1404.43023187    -1332.16472941
  entropy T*S    EENTRO =         0.00000000
  eigenvalues    EBANDS =         9.20140716
  atomic energy  EATOM  =      1516.37656012
  free energy    TOTEN  =        70.30823588 eV

  energy without entropy =       70.30823588  energy(sigma->0) =       70.30823588

[...]

 eigenvalue-minimisations  :   330
 total energy-change (2. order) :-0.7306735E+02  (-0.7137830E+02)
 number of electron      18.0000000 magnetization
 augmentation part       18.0000000 magnetization

[...]

 Broyden mixing:
  rms(total) = 0.56004E+00    rms(broyden)= 0.55998E+00
  rms(prec ) = 0.85675E+00
  weight for this iteration     100.00

[...]

 eigenvalues of (default mixing * dielectric matrix)
  average eigenvalue GAMMA=   2.4751
  2.4751

[...]

 average (electrostatic) potential at core
  the test charge radii are     1.0698  1.1897
  (the norm of the test charge is              1.0000)
       1 -39.0577       2 -91.3468

 E-fermi :   2.2429     XC(G=0):  -8.5924     alpha+bet : -7.4320

 k-point     1 :       0.1250    0.1250    0.1250
  band No.  band energies     occupation
      1      -8.7691      2.00000
      2      -5.9224      2.00000
      3      -5.9224      2.00000
      4      -5.8876      2.00000
      5      -5.6732      2.00000
      6      -5.6732      2.00000
      7       1.1253      2.00000
      8       2.2135      2.00000
      9       2.2135      2.00000
     10       3.9961      0.00000
     11       6.9371      0.00000
     12       7.1626      0.00000
     13       7.1626      0.00000

[...]

 soft charge-density along one line, spin component           1
         0         1         2         3         4         5         6         7         8         9
x    13.4214    0.0000    3.1660   -3.4412    0.0873   -0.1631   -0.3108   -0.0017   -0.2082    0.0119
x    -0.0193    0.0062    0.0265   -0.0003    0.0128   -0.0002    0.0027    0.0000    0.0002    0.0000
x     0.0000    0.0000
y    13.4214    0.0000    3.1660   -3.4412    0.0873   -0.1631   -0.3108   -0.0017   -0.2082    0.0119
y    -0.0193    0.0062    0.0265   -0.0003    0.0128   -0.0002    0.0027    0.0000    0.0002    0.0000
y     0.0000    0.0000
z    13.4214    0.0000    3.1660   -3.4412    0.0873   -0.1631   -0.3108   -0.0017   -0.2082    0.0119
z    -0.0193    0.0062    0.0265   -0.0003    0.0128   -0.0002    0.0027    0.0000    0.0002    0.0000
z     0.0000    0.0000
 total charge-density along one line
x    18.0000    0.0000    8.2120   -2.4441    4.0554   -0.1610    1.3149   -0.2418    0.2309   -0.0005
x     0.0135   -0.0025    0.0005   -0.0012    0.0130   -0.0018    0.0075    0.0002   -0.0010   -0.0002
x    -0.0010   -0.0000    0.0007   -0.0000    0.0003    0.0000   -0.0004    0.0000    0.0000   -0.0000
x     0.0002    0.0000   -0.0001    0.0000   -0.0001    0.0000    0.0001   -0.0000    0.0000    0.0000
x    -0.0001   -0.0000
y    18.0000    0.0000    8.2120   -2.4441    4.0554   -0.1610    1.3149   -0.2418    0.2309   -0.0005
y     0.0135   -0.0025    0.0005   -0.0012    0.0130   -0.0018    0.0075    0.0002   -0.0010   -0.0002
y    -0.0010   -0.0000    0.0007   -0.0000    0.0003    0.0000   -0.0004    0.0000    0.0000   -0.0000
y     0.0002    0.0000   -0.0001    0.0000   -0.0001    0.0000    0.0001   -0.0000    0.0000    0.0000
y    -0.0001   -0.0000
z    18.0000    0.0000    8.2120   -2.4441    4.0554   -0.1610    1.3149   -0.2418    0.2309   -0.0005
z     0.0135   -0.0025    0.0005   -0.0012    0.0130   -0.0018    0.0075    0.0002   -0.0010   -0.0002
z    -0.0010   -0.0000    0.0007   -0.0000    0.0003    0.0000   -0.0004    0.0000    0.0000   -0.0000
z     0.0002    0.0000   -0.0001    0.0000   -0.0001    0.0000    0.0001   -0.0000    0.0000    0.0000
z    -0.0001   -0.0000

------------------------ aborting loop because EDIFF is reached ----------------------------------------

  FORCE on cell =-STRESS in cart. coord.  units (eV):
  Direction    XX          YY          ZZ          XY          YZ          ZX
  Alpha Z    50.23496    50.23496    50.23496
  Ewald    -348.42238  -348.42238  -348.42238    -0.00000     0.00000     0.00000
  Hartree   167.79011   167.79011   167.79011     0.00000     0.00000     0.00000
  E(xc)     -87.40295   -87.40295   -87.40295     0.00004     0.00004     0.00004
  Local     -17.57524   -17.57524   -17.57524     0.00025     0.00025     0.00025
  n-local    29.41343    26.00925    26.19183    -1.98732     0.17699     1.17896
  augment     6.37544     6.37544     6.37544    -0.00020    -0.00020    -0.00020
  Kinetic   203.80760   201.74952   202.50769    -1.64959     0.15541     0.94409
  Fock        0.00000     0.00000     0.00000     0.00000     0.00000     0.00000
  Total       0.89305     0.89305     0.89305    -0.00000     0.00000     0.00000
  in kB      21.03408    21.03408    21.03408    -0.00000     0.00000     0.00000

 VOLUME and BASIS-vectors are now :
  energy-cutoff  :      275.00
  volume of cell :       68.02
      direct lattice vectors                 reciprocal lattice vectors
     3.240000000  3.240000000  0.000000000     0.154320988  0.154320988 -0.154320988
     0.000000000  3.240000000  3.240000000    -0.154320988  0.154320988  0.154320988
     3.240000000  0.000000000  3.240000000     0.154320988 -0.154320988  0.154320988

[...]

 FORCES acting on ions
    electron-ion (+dipol)            ewald-force                    non-local-force                 convergence-correction
   -.187E-04 -.187E-04 -.187E-04   0.677E-14 0.433E-14 0.576E-14   0.243E-16 0.113E-16 0.104E-16   0.555E-07 0.555E-07 0.555E-07
   0.584E-05 0.584E-05 0.584E-05   -.686E-14 -.397E-14 -.590E-14   -.694E-17 0.104E-16 0.694E-17   0.700E-07 0.700E-07 0.700E-07
   -.129E-04 -.129E-04 -.129E-04   -.953E-16 0.356E-15 -.137E-15   0.173E-16 0.217E-16 0.173E-16   0.125E-06 0.125E-06 0.125E-06

 POSITION                                       TOTAL-FORCE (eV/Angst)
      0.00000      0.00000      0.00000         0.000000     -0.000000     -0.000000
      1.62000      1.62000      1.62000        -0.000000      0.000000      0.000000
    total drift:                               -0.000013     -0.000013     -0.000013

  FREE ENERGIE OF THE ION-ELECTRON SYSTEM (eV)
  free  energy   TOTEN  =        -4.76812432 eV

  energy  without entropy=       -4.76812432  energy(sigma->0) =       -4.76812432

 Quasi-Newton relaxation of ions (Broydens 2nd method)
  g(Force)  = 0.592E-44   g(Stress)= 0.577E-01

 Reset! Starting new Quasi-Newton update for ions

[...]

 BZINTS: Fermi energy:  1.330046; 18.000000 electrons
         Band energy:-101.988249;  BLOECHL correction:  0.000000

[...]

 d Force = 0.0000000E+00[ 0.000E+00, 0.000E+00]  d Energy = 0.6492360E-02-0.649E-02
 d Force = 0.0000000E+00[ 0.000E+00, 0.000E+00]  d Ewald  =-0.2204196E+02 0.220E+02

[...]

 retain information from N=  1 steps
 eigenvalues of (default step * inverse Hessian matrix)
  average eigenvalue of G=   0.5860
 eigenvalue spectrum of G is  0.5860

[...]

 eigenvalue-minimisations  :   285
 total energy-change (2. order) :-0.1225315E+00  (-0.2340857E+00)
 number of electron      18.0000107 magnetization
 augmentation part        4.5102432 magnetization

[...]

 Broyden mixing:
  rms(total) = 0.12410E-01    rms(broyden)= 0.12410E-01
  rms(prec ) = 0.16879E-01
  weight for this iteration     100.00

 eigenvalues of (default mixing * dielectric matrix)
  average eigenvalue GAMMA=   1.4725
  2.1607  0.9180  1.3388

[...]

----------------------------------------- Iteration    3(   5)  ---------------------------------------

 BZINTS: Fermi energy:  1.913236; 18.000000 electrons
         Band energy: -76.755575;  BLOECHL correction:  0.000000

 eigenvalue-minimisations  :   255
 total energy-change (2. order) : 0.5574577E-04  (-0.2766298E-04)
 number of electron      18.0000108 magnetization
 augmentation part        4.5790135 magnetization

 Free energy of the ion-electron system (eV)
  alpha Z        PSCENC =        48.37951881
  Ewald energy   TEWEN  =     -1032.23587943
  -Hartree energ DENC   =      -510.58772387
  -exchange      EXHF   =         0.00000000
  -V(xc)+E(xc)   XCENC  =       -22.69751497
  PAW double counting   =      1713.27010734    -1640.53337139
  entropy T*S    EENTRO =         0.00000000
  eigenvalues    EBANDS =       -76.75557523
  atomic energy  EATOM  =      1516.37656012
  free energy    TOTEN  =        -4.78387862 eV

  energy without entropy =       -4.78387862  energy(sigma->0) =       -4.78387862

 average (electrostatic) potential at core
  the test charge radii are     1.0698  1.1897
  (the norm of the test charge is              1.0000)
       1 -39.3133       2 -91.6144

 E-fermi :   1.9132     XC(G=0):  -8.4181     alpha+bet : -7.1574

[...]

 k-point    10 :      -0.3750    0.3750    0.3750
  band No.  band energies     occupation
      1      -8.5283      2.00000
      2      -6.0588      2.00000
      3      -6.0475      2.00000
      4      -5.9240      2.00000
      5      -5.9054      2.00000
      6      -5.4908      2.00000
      7      -1.9598      2.00000
      8      -0.2028      2.00000
      9       0.9269      2.00000
     10       5.0564      0.00000
     11       6.9951      0.00000
     12       8.3491      0.00000
     13       8.6805      0.00000

 soft charge-density along one line, spin component           1
         0         1         2         3         4         5         6         7         8         9
x    13.4210    0.0000    3.2086   -3.5057    0.0979   -0.1647   -0.3067   -0.0012   -0.2208    0.0121
x    -0.0260    0.0068    0.0269   -0.0003    0.0141   -0.0003    0.0032    0.0000    0.0003    0.0000
x     0.0000    0.0000
y    13.4210    0.0000    3.2086   -3.5057    0.0979   -0.1647   -0.3067   -0.0012   -0.2208    0.0121
y    -0.0260    0.0068    0.0269   -0.0003    0.0141   -0.0003    0.0032    0.0000    0.0003    0.0000
y     0.0000    0.0000
z    13.4210    0.0000    3.2086   -3.5057    0.0979   -0.1647   -0.3067   -0.0012   -0.2208    0.0121
z    -0.0260    0.0068    0.0269   -0.0003    0.0141   -0.0003    0.0032    0.0000    0.0003    0.0000
z     0.0000    0.0000
 total charge-density along one line
x    18.0000   -0.0000    8.2771   -2.5029    4.1244   -0.1629    1.3772   -0.2507    0.2522    0.0001
x     0.0196   -0.0012   -0.0005   -0.0011    0.0126   -0.0019    0.0084    0.0002   -0.0005   -0.0002
x    -0.0012   -0.0000    0.0005   -0.0000    0.0004    0.0000   -0.0003    0.0000   -0.0000   -0.0000
x     0.0002    0.0000   -0.0000    0.0000   -0.0001    0.0000    0.0000   -0.0000    0.0000    0.0000
x    -0.0001   -0.0000
y    18.0000   -0.0000    8.2771   -2.5029    4.1244   -0.1629    1.3772   -0.2507    0.2522    0.0001
y     0.0196   -0.0012   -0.0005   -0.0011    0.0126   -0.0019    0.0084    0.0002   -0.0005   -0.0002
y    -0.0012   -0.0000    0.0005   -0.0000    0.0004    0.0000   -0.0003    0.0000   -0.0000   -0.0000
y     0.0002    0.0000   -0.0000    0.0000   -0.0001    0.0000    0.0000   -0.0000    0.0000    0.0000
y    -0.0001   -0.0000
z    18.0000   -0.0000    8.2771   -2.5029    4.1244   -0.1629    1.3772   -0.2507    0.2522    0.0001
z     0.0196   -0.0012   -0.0005   -0.0011    0.0126   -0.0019    0.0084    0.0002   -0.0005   -0.0002
z    -0.0012   -0.0000    0.0005   -0.0000    0.0004    0.0000   -0.0003    0.0000   -0.0000   -0.0000
z     0.0002    0.0000   -0.0000    0.0000   -0.0001    0.0000    0.0000   -0.0000    0.0000    0.0000
z    -0.0001   -0.0000

------------------------ aborting loop because EDIFF is reached ----------------------------------------

  FORCE on cell =-STRESS in cart. coord.  units (eV):
  Direction    XX          YY          ZZ          XY          YZ          ZX
  Alpha Z    48.37952    48.37952    48.37952
  Ewald    -344.07876  -344.07876  -344.07876     0.00000    -0.00000     0.00000
  Hartree   170.17443   170.17443   170.17443     0.00000     0.00000     0.00000
  E(xc)     -87.25934   -87.25934   -87.25934     0.00005     0.00005     0.00005
  Local     -22.13142   -22.13142   -22.13142     0.00031     0.00031     0.00031
  n-local    28.37021    24.87662    25.06564    -1.98718     0.17782     1.18551
  augment     6.32354     6.32354     6.32354    -0.00027    -0.00027    -0.00027
  Kinetic   203.70882   201.48920   202.23963    -1.66162     0.15666     0.96775
  Fock        0.00000     0.00000     0.00000     0.00000     0.00000     0.00000
  Total      -0.00865    -0.00865    -0.00865     0.00000     0.00000     0.00000
  in kB      -0.19627    -0.19627    -0.19627     0.00000     0.00000     0.00000

 VOLUME and BASIS-vectors are now :
  energy-cutoff  :      275.00
  volume of cell :       70.63
      direct lattice vectors                 reciprocal lattice vectors
     3.280901464  3.280901464  0.000000000     0.152397140  0.152397140 -0.152397140
    -0.000000000  3.280901464  3.280901464    -0.152397140  0.152397140  0.152397140
     3.280901464  0.000000000  3.280901464     0.152397140 -0.152397140  0.152397140

  length of vectors
     4.639895347  4.639895347  4.639895347     0.263959590  0.263959590  0.263959590

 FORCES acting on ions
    electron-ion (+dipol)            ewald-force                    non-local-force                 convergence-correction
   -.227E-04 -.227E-04 -.227E-04   0.458E-14 0.949E-14 -.380E-13   0.000E+00 0.356E-20 0.000E+00   0.841E-07 0.841E-07 0.841E-07
   0.911E-05 0.911E-05 0.911E-05   -.453E-14 -.972E-14 0.382E-13   -.902E-16 -.902E-16 -.833E-16   0.158E-06 0.158E-06 0.158E-06
   -.136E-04 -.136E-04 -.136E-04   0.498E-16 -.236E-15 0.119E-15   -.902E-16 -.902E-16 -.833E-16   0.242E-06 0.242E-06 0.242E-06

 POSITION                                       TOTAL-FORCE (eV/Angst)
     -0.00000     -0.00000     -0.00000         0.000000     -0.000000      0.000000
      1.64045      1.64045      1.64045        -0.000000      0.000000     -0.000000
    total drift:                               -0.000013     -0.000013     -0.000013

  FREE ENERGIE OF THE ION-ELECTRON SYSTEM (eV)
  free  energy   TOTEN  =        -4.78387862 eV

  energy  without entropy=       -4.78387862  energy(sigma->0) =       -4.78387862

 d Force = 0.0000000E+00[ 0.000E+00, 0.000E+00]  d Energy = 0.9261942E-02-0.926E-02
 d Force = 0.0000000E+00[ 0.000E+00, 0.000E+00]  d Ewald  = 0.9011110E+01-0.901E+01

 Quasi-Newton relaxation of ions (Broydens 2nd method)
  g(Force)  = 0.169E-42   g(Stress)= 0.542E-05

 retain information from N=  1 steps
 eigenvalues of (default step * inverse Hessian matrix)
  average eigenvalue of G=   0.5943
 eigenvalue spectrum of G is  0.5943

 reached required accuracy - stopping structural energy minimisation
 writing wavefunctions